************************************************************************
file with basedata            : mf45_.bas
initial value random generator: 1120372880
************************************************************************
projects                      :  1
jobs (incl. supersource/sink ):  32
horizon                       :  228
RESOURCES
  - renewable                 :  2   R
  - nonrenewable              :  2   N
  - doubly constrained        :  0   D
************************************************************************
PROJECT INFORMATION:
pronr.  #jobs rel.date duedate tardcost  MPM-Time
    1     30      0       29       29       29
************************************************************************
PRECEDENCE RELATIONS:
jobnr.    #modes  #successors   successors
   1        1          3           2   3   4
   2        3          3           6  18  19
   3        3          3           5   6  15
   4        3          3           7   9  24
   5        3          2           7  29
   6        3          2           9  25
   7        3          1           8
   8        3          3          10  11  12
   9        3          2          12  20
  10        3          2          17  18
  11        3          2          13  14
  12        3          1          21
  13        3          1          21
  14        3          1          16
  15        3          2          22  26
  16        3          1          17
  17        3          3          20  22  23
  18        3          2          23  31
  19        3          3          20  22  24
  20        3          2          21  30
  21        3          1          31
  22        3          2          27  30
  23        3          1          28
  24        3          3          25  26  27
  25        3          2          28  29
  26        3          2          28  29
  27        3          1          31
  28        3          1          30
  29        3          1          32
  30        3          1          32
  31        3          1          32
  32        1          0        
************************************************************************
REQUESTS/DURATIONS:
jobnr. mode duration  R 1  R 2  N 1  N 2
------------------------------------------------------------------------
  1      1     0       0    0    0    0
  2      1     6       6    9    7    2
         2     8       5    8    7    2
         3    10       3    6    7    1
  3      1     1       4    9    5    7
         2     1       4    9    6    6
         3     7       4    8    4    4
  4      1     1       6    9    6    6
         2     2       6    8    5    5
         3     4       6    7    5    4
  5      1     2       7    3    2   10
         2     6       7    3    1   10
         3     7       7    2    1    9
  6      1     1       4    6    5    3
         2     1       4    5    7    3
         3     3       4    5    3    3
  7      1     1       9    6    4    7
         2     6       9    4    3    6
         3     8       7    4    2    6
  8      1     4      10    7    1    9
         2     9       9    6    1    6
         3    10       9    5    1    5
  9      1     3       7    6    8    4
         2     4       6    5    8    3
         3     7       5    3    7    2
 10      1     7       6    5    4    8
         2     8       4    2    4    6
         3    10       2    2    2    5
 11      1     1       7    8    9    7
         2     6       6    7    8    7
         3    10       5    5    8    5
 12      1     5       8    8    4    7
         2     6       7    7    4    6
         3     9       7    6    3    5
 13      1     1       7    8    3    9
         2     5       6    5    3    9
         3     5       6    6    2    9
 14      1     1       8    1    6   10
         2     6       8    1    6    7
         3     7       8    1    4    6
 15      1     1       6   10    1    9
         2     5       5    6    1    9
         3     7       2    6    1    9
 16      1     2       7    5    7    2
         2     3       5    5    5    1
         3     6       5    4    4    1
 17      1     3       2    5    9    7
         2     8       1    2    2    4
         3     8       2    2    3    2
 18      1     3       6   10    7    4
         2     6       5    8    6    3
         3     8       4    5    3    3
 19      1     1       5    8    7    3
         2     6       5    6    5    2
         3     9       5    6    2    2
 20      1     3       9    8    8    6
         2     8       9    8    6    4
         3    10       8    4    2    2
 21      1     2       3    8    8    8
         2     6       2    5    7    5
         3     6       2    5    5    6
 22      1     1       9    3    9    2
         2     4       9    3    4    2
         3     9       8    2    3    2
 23      1     1       9    4    8    7
         2     2       7    3    5    5
         3     4       5    2    4    4
 24      1     7       6    6    4    9
         2     7       6    8    6    8
         3    10       4    5    1    8
 25      1     6       6    6   10    7
         2     8       5    1    8    6
         3     8       5    2    9    4
 26      1     3       4    7    4    4
         2     5       3    6    4    4
         3     8       3    1    4    2
 27      1     6       5    6    8    5
         2     8       4    6    5    4
         3    10       3    5    1    2
 28      1     3       8    8    9    1
         2     4       8    3    9    1
         3     4       8    4    8    1
 29      1     4       6    9    6    7
         2     5       6    7    6    4
         3     8       5    5    5    3
 30      1     1       5    9    2    4
         2     6       3    9    2    4
         3    10       2    8    2    3
 31      1     4       8    9    2    7
         2     6       6    6    1    5
         3     6       7    4    2    6
 32      1     0       0    0    0    0
************************************************************************
RESOURCEAVAILABILITIES:
  R 1  R 2  N 1  N 2
   15   14  142  152
************************************************************************
